"Example"
24 = mDIM
1 = nBLOCK
24 = bLOCKsTRUCT
1 1 1 1 1 1 1 1 1 1 1 1 1 1 1 1 1 1 1 1 1 1 1 1 
0 1 1 13 -0.000828
0 1 1 14 0.000058
0 1 1 15 -0.000742
0 1 1 16 0.003058
0 1 1 17 0.003858
0 1 1 18 -0.000342
0 1 1 19 0.000858
0 1 1 20 -0.000342
0 1 1 21 -0.006542
0 1 1 22 -0.003542
0 1 1 23 -0.002542
0 1 1 24 0.007058
0 1 2 13 -0.001742
0 1 2 14 0.002322
0 1 2 15 0.003122
0 1 2 16 -0.002678
0 1 2 17 -0.000478
0 1 2 18 0.001122
0 1 2 19 0.001122
0 1 2 20 -0.001278
0 1 2 21 0.000322
0 1 2 22 -0.000878
0 1 2 23 0.002522
0 1 2 24 -0.003478
0 1 3 13 0.000658
0 1 3 14 -0.000478
0 1 3 15 0.000922
0 1 3 16 0.000522
0 1 3 17 -0.002478
0 1 3 18 -0.000878
0 1 3 19 -0.000478
0 1 3 20 0.000122
0 1 3 21 0.003722
0 1 3 22 -0.000078
0 1 3 23 0.000122
0 1 3 24 -0.001678
0 1 4 13 -0.000342
0 1 4 14 0.000322
0 1 4 15 -0.001078
0 1 4 16 -0.001078
0 1 4 17 0.000322
0 1 4 18 -0.003078
0 1 4 19 -0.000678
0 1 4 20 0.001522
0 1 4 21 -0.000478
0 1 4 22 0.000922
0 1 4 23 0.003522
0 1 4 24 0.000122
0 1 5 13 0.006058
0 1 5 14 -0.001878
0 1 5 15 -0.000678
0 1 5 16 0.000922
0 1 5 17 -0.003278
0 1 5 18 -0.000078
0 1 5 19 -0.000878
0 1 5 20 -0.002278
0 1 5 21 0.001322
0 1 5 22 0.001322
0 1 5 23 -0.000678
0 1 5 24 0.000122
0 1 6 13 0.005058
0 1 6 14 -0.002078
0 1 6 15 0.001322
0 1 6 16 0.001322
0 1 6 17 -0.003078
0 1 6 18 -0.000278
0 1 6 19 -0.000678
0 1 6 20 0.000122
0 1 6 21 0.001522
0 1 6 22 -0.001078
0 1 6 23 -0.000878
0 1 6 24 -0.001278
0 1 7 13 -0.010942
0 1 7 14 0.000722
0 1 7 15 -0.000478
0 1 7 16 0.000522
0 1 7 17 0.001922
0 1 7 18 0.001322
0 1 7 19 0.003722
0 1 7 20 0.000722
0 1 7 21 0.001322
0 1 7 22 0.001122
0 1 7 23 0.001522
0 1 7 24 -0.001478
0 1 8 13 0.009858
0 1 8 14 -0.001878
0 1 8 15 -0.001278
0 1 8 16 -0.003278
0 1 8 17 -0.001678
0 1 8 18 0.000322
0 1 8 19 -0.001478
0 1 8 20 0.000722
0 1 8 21 -0.001278
0 1 8 22 -0.000878
0 1 8 23 0.000922
0 1 8 24 -0.000078
0 1 9 13 -0.006942
0 1 9 14 0.002322
0 1 9 15 0.001122
0 1 9 16 -0.001278
0 1 9 17 0.000122
0 1 9 18 0.002322
0 1 9 19 -0.000278
0 1 9 20 0.002322
0 1 9 21 -0.001078
0 1 9 22 0.002522
0 1 9 23 -0.000678
0 1 9 24 -0.000478
0 1 10 13 0.001058
0 1 10 14 -0.000078
0 1 10 15 -0.001678
0 1 10 16 0.000322
0 1 10 17 0.003322
0 1 10 18 -0.000678
0 1 10 19 -0.000878
0 1 10 20 -0.002478
0 1 10 21 0.002922
0 1 10 22 0.002522
0 1 10 23 -0.002278
0 1 10 24 -0.002078
0 1 11 13 -0.004342
0 1 11 14 0.001322
0 1 11 15 -0.000478
0 1 11 16 0.000522
0 1 11 17 -0.000078
0 1 11 18 0.000922
0 1 11 19 0.002122
0 1 11 20 0.001722
0 1 11 21 -0.001878
0 1 11 22 -0.000878
0 1 11 23 -0.000478
0 1 11 24 0.001522
0 1 12 13 0.002458
0 1 12 14 -0.000678
0 1 12 15 -0.000078
0 1 12 16 0.001122
0 1 12 17 0.001522
0 1 12 18 -0.000678
0 1 12 19 -0.002478
0 1 12 20 -0.000878
0 1 12 21 0.000122
0 1 12 22 -0.001078
0 1 12 23 -0.001078
0 1 12 24 0.001722
1 1 1 1 1
2 1 2 2 1
3 1 3 3 1
4 1 4 4 1
5 1 5 5 1
6 1 6 6 1
7 1 7 7 1
8 1 8 8 1
9 1 9 9 1
10 1 10 10 1
11 1 11 11 1
12 1 12 12 1
13 1 13 13 1
14 1 14 14 1
15 1 15 15 1
16 1 16 16 1
17 1 17 17 1
18 1 18 18 1
19 1 19 19 1
20 1 20 20 1
21 1 21 21 1
22 1 22 22 1
23 1 23 23 1
24 1 24 24 1
